
Gurobi 11.0.2 (linux64) logging started Tue 03 Dec 2024 09:03:40 AM CET

Set parameter LogFile to value "./res/knapPI_11_50_1000/knapPI_11_50_1000_18/grb.log"
Set parameter Presolve to value 0
Set parameter Aggregate to value 0
Set parameter Heuristics to value 0
Set parameter LPWarmStart to value 0
Set parameter NLPHeur to value 0
Set parameter PreDepRow to value 0
Set parameter PreDual to value 0
Set parameter RINS to value 0
Set parameter Symmetry to value 0
Set parameter NodeLimit to value 1
Set parameter Threads to value 1

Gurobi 11.0.2 (linux64) logging started Tue 03 Dec 2024 09:03:40 AM CET

Set parameter LogFile to value "./res/knapPI_11_50_1000/knapPI_11_50_1000_18/grb.log"
Set parameter NLPHeur to value 0
Set parameter LPWarmStart to value 0
Set parameter PreDepRow to value 0
Set parameter Symmetry to value 0
Set parameter Presolve to value 0
Gurobi Optimizer version 11.0.2 build v11.0.2rc0 (linux64 - "Pop!_OS 20.04 LTS")

CPU model: Intel(R) Core(TM) i7-8650U CPU @ 1.90GHz, instruction set [SSE2|AVX|AVX2]
Thread count: 4 physical cores, 4 logical processors, using up to 1 threads

Optimize a model with 1 rows, 50 columns and 50 nonzeros
Model fingerprint: 0x9c8d3c31
Variable types: 0 continuous, 50 integer (50 binary)
Coefficient statistics:
  Matrix range     [1e+02, 2e+03]
  Objective range  [1e+02, 2e+03]
  Bounds range     [0e+00, 0e+00]
  RHS range        [8e+03, 8e+03]
Variable types: 0 continuous, 50 integer (50 binary)

Root relaxation: objective 1.073730e+04, 5 iterations, 0.00 seconds (0.00 work units)

    Nodes    |    Current Node    |     Objective Bounds      |     Work
 Expl Unexpl |  Obj  Depth IntInf | Incumbent    BestBd   Gap | It/Node Time

     0     0 10737.3016    0    1          - 10737.3016      -     -    0s
     0     0 10737.3016    0    1          - 10737.3016      -     -    0s
     0     0 10737.3016    0    2          - 10737.3016      -     -    0s
     0     0 10737.3016    0    2          - 10737.3016      -     -    0s
     0     0 10737.3016    0    1          - 10737.3016      -     -    0s
     0     0 10737.3016    0    3          - 10737.3016      -     -    0s
     0     0 10737.3016    0    3          - 10737.3016      -     -    0s
     0     2 10737.3016    0    3          - 10737.3016      -     -    0s

Cutting planes:
  Cover: 2
  MIR: 1
  StrongCG: 1

Explored 1 nodes (18 simplex iterations) in 0.01 seconds (0.00 work units)
Thread count was 1 (of 4 available processors)

Solution count 0

Node limit reached
Best objective -, best bound 1.073700000000e+04, gap -

User-callback calls 72, time in user-callback 0.00 sec
opt = false
obj = 10737.3016
solved_time = 0.0065
